c WARNING: for repeatability, setting FPU to use double precision
d VARIABLES            75036        
d CONSTRAINTS          300581       
c ============================[ Problem Statistics ]=============================
c |                                                                             |
c |  Number of variables:         75036                                         |
c |  Number of clauses:          300581                                         |
c |  Parse time:                   0.05 s                                       |
c |                                                                             |
c ============================[ Search Statistics ]==============================
c | Conflicts |          ORIGINAL         |          LEARNT          | Progress |
c |           |    Vars  Clauses Literals |    Limit  Clauses Lit/Cl |          |
c ===============================================================================
c |       100 |   54969   248559   607987 |    91138      100     24 | 26.743 % |
c |       250 |   54969   248559   607987 |   100252      250     56 | 26.743 % |
c |       475 |   54969   248559   607987 |   110277      475    122 | 26.743 % |
c |       812 |   54969   248559   607987 |   121305      812    129 | 26.743 % |
c |      1318 |   54969   248559   607987 |   133435     1318    129 | 26.743 % |
c |      2077 |   54969   248559   607987 |   146779     2077    122 | 26.743 % |
c |      3216 |   54969   248559   607987 |   161457     3216    129 | 26.743 % |
c |      4924 |   54969   248559   607987 |   177602     4924    130 | 26.743 % |
c |      7486 |   54969   248559   607987 |   195363     7486    146 | 26.743 % |
c |     11330 |   54969   248559   607987 |   214899    11330    158 | 26.743 % |
c |     17096 |   54969   248559   607987 |   236389    17096    163 | 26.743 % |
c |     25745 |   54969   248559   607987 |   260028    25745    173 | 26.743 % |
c |     38719 |   54969   248559   607987 |   286031    38719    178 | 26.743 % |
c |     58180 |   54969   248559   607987 |   314634    58180    172 | 26.743 % |
c |     87372 |   54969   248559   607987 |   346097    87372    174 | 26.743 % |
c |    131161 |   54969   248559   607987 |   380707   131161    180 | 26.743 % |
c |    196845 |   54969   248559   607987 |   418778   196845    179 | 26.743 % |
c |    295371 |   54969   248559   607987 |   460655   295371    178 | 26.743 % |
c |    443160 |   54969   248559   607987 |   506721   443160    175 | 26.743 % |
c |    664843 |   54969   248559   607987 |   557393   165315    134 | 26.743 % |
c |    997368 |   54969   248559   607987 |   613132   497840    147 | 26.743 % |
c |   1496156 |   54969   248559   607987 |   674446   388324    141 | 26.743 % |
c |   2244338 |   54969   248559   607987 |   741890   474005    116 | 26.743 % |
c ===============================================================================
c restarts              : 5883
c conflicts             : 3292812        (1838 /sec)
c decisions             : 6523400        (0.00 % random) (3642 /sec)
c propagations          : 3935458001     (2197289 /sec)
c conflict literals     : 468963752      (41.55 % deleted)
d RESTARTS             5883
d FAILURES             3292812      
d NODES                6523400      
d BACKTRACKS           6523400      
d PROPAGATIONS         3935458001   
d NOGOODSIZE           142.42 
d MEMORY               710.00 
d TIME                 1791.05 

s UNKNOWN
